n = 31;
lu = [|-619, 207
      |-484, 333
      |712, 760
      |-394, 19
      |374, 841
      |129, 863
      |119, 900
      |-580, 373
      |302, 892
      |-304, 69
      |120, 446
      |-50, 24
      |-384, 417
      |-817, 340
      |-344, -114
      |-328, 100
      |55, 879
      |-854, 560
      |283, 799
      |425, 546
      |-89, 708
      |-387, 772
      |-307, 939
      |176, 605
      |-458, 434
      |-721, 809
      |-847, -308
      |-379, 856
      |-525, 875
      |-826, 574
      |-709, -212|];
